50
1000
492
489
483
482
481
455
452
448
443
439
438
423
419
410
405
389
386
381
374
367
366
361
357
348
322
316
300
293
292
285
283
279
279
276
271
264
254
249
241
231
226
223
220
201
193
192
189
182
178
170
